15 30 011 1
3 5 19 14 20 7 3 15 2 2 6 8 6 4 6 10 20 11 12
15 13 8 10 12 1 6 15 12
13 9 6 4 19 6 13
5 3 19 10 8 1 6
12 1 19 10 16 15 6 8 6
5 10 10 11 9 3 13 14 7 7 2
17 8 6 1 3 12 3 6 2
19 7 6 1 6 13 8 5 6
7 3 6 10 11 11 9 15 5
17 2 12 6 10 5 16 9 11 4 8 1 20
5 6 9 9 9 1 12
12 13 15 7 3
18 2 8 12 15 8 8
19 1 20 6 7
20 5 6 1 2 2 12 9 5
